% demand
num_movements = 24;
loading_factor = [1600, 1400, 850, 800, 1100, 1400, 1900, 1100, 2000, 1350, 1750, 1600, 1300, 1950, 1400, 1750, 2000, 1950, 1850, 950, 1350, 1150, 1700, 1150];
pickup_time = [0, 0, 0, 0, 0, 1, 3, 4, 5, 5, 5, 6, 7, 8, 8, 8, 10, 10, 11, 12, 12, 12, 12, 12];
delivery_time = [2, 4, 1, 1, 2, 2, 6, 5, 6, 6, 6, 7, 10, 10, 12, 10, 11, 12, 12, 13, 13, 13, 13, 13];

% transporter definition
total_capacity = 7000;
num_decks = 3;
capacity = [3000, 1000, 3000];

% ways out of decks
num_ways_out = 1;
paths_out = array3d(decks, ways_out, decks, [
% ways out of deck d1
2, 3, 0, 

% ways out of deck d2
3, 0, 0, 

% ways out of deck d3
0, 0, 0,	

]);

